db/inputs/318062607517898194217264322401749326688.smt2
(set-logic QF_FP)
(declare-const x0 (_ FloatingPoint 11 53))
(declare-const x1 (_ FloatingPoint 11 53))
(declare-const x2 (_ FloatingPoint 11 53))
(declare-const x3 (_ FloatingPoint 11 53))
(declare-const x4 (_ FloatingPoint 11 53))
(declare-const x5 (_ FloatingPoint 11 53))
(declare-const x6 (_ FloatingPoint 11 53))
(declare-const x7 (_ FloatingPoint 11 53))
(assert (fp.leq (fp.div RNE x1 x5) (fp.add RNE x0 x2)))
(assert (fp.gt (fp.neg x1) (fp.div RNE x2 x2)))
(assert (fp.eq (fp.div RNE x5 x6) (fp.add RNE x7 x0)))
(assert (fp.leq (fp.neg x1) (fp.div RNE x5 x4)))
(assert (fp.gt (fp.neg x1) (fp.div RNE x3 x7)))
(assert (fp.lt (fp.mul RNE x0 x4) (fp.add RNE x4 x3)))
(assert (fp.geq (fp.neg x6) (fp.mul RNE x6 x7)))
(check-sat)
