db/data/318062607517898194217264322401749326688.z3.out
-------------------
2500.106423466
